STUDENTS = {Pam,Danielle,Gene,Constance,Cheryl,Annette,Kelly,Lois,Sandra,Renee,Sidney,Jerome,Rosemary,Jamie,Marlene,Teresa,Marian,Nathan,Kay,Katherine,Lucille,Lewis,Patrick,Francis,Sylvia,Leonard,Andrew,Elsie,Lester,Elisabeth,Melissa,Lynda,Angela,Samantha,Michele,Vincent,Karl,Sandy,Louis,Laura,Floyd,Marcus,Joanna,Theresa,Kara,Veronica,Lindsay,Leah,Kristine,Barbara,Stacey,Todd,Marvin,Carlos,Jeanne,Justin,Vanessa,Marc,Michael,Patricia,Allen,Jerry,Amanda,Penny,Alan,Regina,Dana,Anne,Vivian,April,Jeff,Joyce,Melanie,Megan,Bill,Maxine,Rebecca,Jose,Harold,Kim,Tara,Kerry,Stephanie,Jesse,Victor,Alicia,Lucy,Franklin,Julia,Marcia,Gayle,Edwin,Julian,Ryan,Grace,Lori,Oscar,Arthur,Faye,Arnold,Sherry,Jeffrey,Judy,Janet,Kristina,Terry,Ann,Donna,Christina,Brad,Kyle,Hugh,Geoffrey,Maria,Leigh,Rita,Claire,Rose,Neil,Molly,Albert,Kurt,Eleanor,Tina,Herbert,Wayne,Phillip,Glen,Ernest,Edith,Stanley,Christian,Jim,Neal,Claudia,Joanne,Dan,Clyde,Jordan,Ralph,Hazel,Maureen,Allan,Emily,Eric,Ruth,Howard,Linda,Steve,Cameron};
T = 150;
LWB = 3;
UPB = 5;
apart = [|Gene,Sandra|Constance,Marian|Constance,Lori|Annette,Phillip|Annette,Emily|Kelly,Stephanie|Kelly,Emily|Lois,Amanda|Lois,Penny|Sandra,Stacey|Renee,Julia|Sidney,Alan|Jerome,Justin|Rosemary,Louis|Rosemary,Jeffrey|Jamie,Kristina|Marlene,Todd|Marlene,Franklin|Marlene,Phillip|Teresa,Grace|Nathan,Lori|Kay,Penny|Katherine,Melissa|Katherine,Bill|Katherine,Linda|Lucille,Penny|Lewis,Laura|Lewis,Joanna|Lewis,Penny|Lewis,Claire|Francis,Karl|Sylvia,Leonard|Sylvia,Jose|Sylvia,Edwin|Sylvia,Terry|Leonard,Jeff|Leonard,Jeffrey|Leonard,Kurt|Andrew,Jeanne|Lester,Vincent|Lester,Cameron|Elisabeth,Angela|Elisabeth,Wayne|Elisabeth,Glen|Elisabeth,Stanley|Melissa,Leigh|Lynda,Megan|Angela,April|Michele,Dana|Michele,Stanley|Laura,Joanna|Laura,Wayne|Floyd,Penny|Marcus,Clyde|Kara,Clyde|Veronica,Patricia|Veronica,Molly|Lindsay,Donna|Lindsay,Geoffrey|Lindsay,Ralph|Leah,Stanley|Kristine,Lucy|Kristine,Jim|Kristine,Jordan|Stacey,Franklin|Stacey,Hugh|Marvin,Grace|Marvin,Brad|Jeanne,Ernest|Jeanne,Jim|Vanessa,Ryan|Vanessa,Oscar|Michael,Alicia|Michael,Terry|Patricia,Penny|Patricia,Maxine|Patricia,Ruth|Jerry,Melanie|Jerry,Phillip|Amanda,Tara|Amanda,Sherry|Penny,Julia|Penny,Neil|Alan,Grace|Alan,Geoffrey|Dana,Maxine|Dana,Janet|Dana,Geoffrey|Dana,Eleanor|Anne,Jim|April,Stephanie|Megan,Donna|Maxine,Marcia|Maxine,Geoffrey|Maxine,Glen|Jose,Jesse|Harold,Clyde|Tara,Eric|Stephanie,Lori|Stephanie,Ernest|Jesse,Alicia|Jesse,Jim|Victor,Tina|Victor,Howard|Alicia,Dan|Lucy,Maria|Franklin,Jordan|Julia,Arnold|Marcia,Maria|Julian,Leigh|Lori,Ralph|Arthur,Faye|Arthur,Rita|Arnold,Claudia|Arnold,Ruth|Arnold,Linda|Sherry,Claudia|Sherry,Howard|Kristina,Maria|Donna,Molly|Geoffrey,Rita|Geoffrey,Neil|Claire,Rose|Claire,Phillip|Claire,Linda|Rose,Albert|Molly,Neal|Kurt,Eric|Maureen,Allan|];
together = [|Rosemary,Marc|Marian,Jeanne|Nathan,Lester|Melissa,Eleanor|Lynda,Christian|Vincent,Floyd|Joanna,Christian|Carlos,Marc|Ryan,Jeffrey|Christina,Rita|Edith,Joanne|];
